p cnf 10 50
6 2 7 0
-9 10 1 0
6 -10 5 0
-10 3 7 0
-9 -6 1 0
-7 3 5 0
2 -6 1 0
-5 -8 1 0
1 -7 -5 0
1 -2 3 0
-8 10 5 0
-8 7 4 0
9 -5 -4 0
-7 2 5 0
-3 7 2 0
5 1 -2 0
6 -1 -4 0
-1 8 -4 0
-8 6 9 0
-6 -4 -3 0
-10 -3 2 0
-9 6 -2 0
3 5 -4 0
-9 3 -1 0
-2 5 6 0
9 5 -2 0
6 2 -3 0
-7 -6 2 0
-9 6 8 0
1 4 -3 0
6 3 -10 0
-7 -5 -6 0
-2 3 -5 0
3 -10 -9 0
3 -8 -6 0
-3 7 4 0
-3 6 -2 0
2 -4 9 0
1 -4 5 0
-2 -6 3 0
4 3 9 0
4 -10 6 0
2 -1 9 0
9 -5 10 0
6 4 -5 0
7 6 -3 0
-6 10 8 0
1 6 -10 0
-10 -7 -9 0
-8 9 -5 0
